Route #1: 25 24 64 65 105 104 103 102 142 143 144 145 146 186 185 184 183 182 181 180 140 141 101 100 60 61 62 63 23 22 21
Route #2: 19 59 99 139 179 219 220 221 222 223 224 225 226 227 228 188 187 147 107 106 66 26
Route #3: 31 71 72 73 113 153 154 155 195 194 193 192 191 190 150 151 152 112 111 110 109 69 70 30 29 28
Route #4: 27 67 68 108 148 149 189 229 230 231 232 233 234 235 236 196 156 116 115 114 74 75 76 36 35 34 33 32
Route #5: 2 3 4 5 45 85 125 165 205 204 203 202 201 240 239 238 237 197 157 117 118 119 79 78 77 37 38
Route #6: 1 41 42 43 44 84 83 123 124 164 163 162 161 200 199 198 158 159 160 121 122 82 81 120 80 40 39
Route #7: 7 47 87 127 167 168 169 170 171 172 212 211 210 209 208 207 206 166 126 86 46 6
Route #8: 11 10 9 8 48 49 50 90 89 88 128 129 130 131 132 133 134 135 136 96 95 94 93 92 91 51 52 53 13 12
Route #9: 20 58 98 138 178 218 217 216 215 214 213 173 174 175 176 177 137 97 57 56 55 54 14 15 16 17 18
Cost 5624
